c Generated with `cnfgen`
c (C) 2012-2018 Massimo Lauria <lauria.massimo@gmail.com>
c https://massimolauria.net/cnfgen
c
c COMMAND LINE: cnfgen tseitin --gnd 10 5 --charge randomodd
c
p cnf 25 160
1 2 3 4 -5 0
1 2 3 -4 5 0
1 2 -3 4 5 0
1 2 -3 -4 -5 0
1 -2 3 4 5 0
1 -2 3 -4 -5 0
1 -2 -3 4 -5 0
1 -2 -3 -4 5 0
-1 2 3 4 5 0
-1 2 3 -4 -5 0
-1 2 -3 4 -5 0
-1 2 -3 -4 5 0
-1 -2 3 4 -5 0
-1 -2 3 -4 5 0
-1 -2 -3 4 5 0
-1 -2 -3 -4 -5 0
1 6 7 8 -9 0
1 6 7 -8 9 0
1 6 -7 8 9 0
1 6 -7 -8 -9 0
1 -6 7 8 9 0
1 -6 7 -8 -9 0
1 -6 -7 8 -9 0
1 -6 -7 -8 9 0
-1 6 7 8 9 0
-1 6 7 -8 -9 0
-1 6 -7 8 -9 0
-1 6 -7 -8 9 0
-1 -6 7 8 -9 0
-1 -6 7 -8 9 0
-1 -6 -7 8 9 0
-1 -6 -7 -8 -9 0
6 10 11 12 13 0
6 10 11 -12 -13 0
6 10 -11 12 -13 0
6 10 -11 -12 13 0
6 -10 11 12 -13 0
6 -10 11 -12 13 0
6 -10 -11 12 13 0
6 -10 -11 -12 -13 0
-6 10 11 12 -13 0
-6 10 11 -12 13 0
-6 10 -11 12 13 0
-6 10 -11 -12 -13 0
-6 -10 11 12 13 0
-6 -10 11 -12 -13 0
-6 -10 -11 12 -13 0
-6 -10 -11 -12 13 0
7 14 15 16 -17 0
7 14 15 -16 17 0
7 14 -15 16 17 0
7 14 -15 -16 -17 0
7 -14 15 16 17 0
7 -14 15 -16 -17 0
7 -14 -15 16 -17 0
7 -14 -15 -16 17 0
-7 14 15 16 17 0
-7 14 15 -16 -17 0
-7 14 -15 16 -17 0
-7 14 -15 -16 17 0
-7 -14 15 16 -17 0
-7 -14 15 -16 17 0
-7 -14 -15 16 17 0
-7 -14 -15 -16 -17 0
2 10 18 19 -20 0
2 10 18 -19 20 0
2 10 -18 19 20 0
2 10 -18 -19 -20 0
2 -10 18 19 20 0
2 -10 18 -19 -20 0
2 -10 -18 19 -20 0
2 -10 -18 -19 20 0
-2 10 18 19 20 0
-2 10 18 -19 -20 0
-2 10 -18 19 -20 0
-2 10 -18 -19 20 0
-2 -10 18 19 -20 0
-2 -10 18 -19 20 0
-2 -10 -18 19 20 0
-2 -10 -18 -19 -20 0
8 14 18 21 -22 0
8 14 18 -21 22 0
8 14 -18 21 22 0
8 14 -18 -21 -22 0
8 -14 18 21 22 0
8 -14 18 -21 -22 0
8 -14 -18 21 -22 0
8 -14 -18 -21 22 0
-8 14 18 21 22 0
-8 14 18 -21 -22 0
-8 14 -18 21 -22 0
-8 14 -18 -21 22 0
-8 -14 18 21 -22 0
-8 -14 18 -21 22 0
-8 -14 -18 21 22 0
-8 -14 -18 -21 -22 0
3 11 19 23 -24 0
3 11 19 -23 24 0
3 11 -19 23 24 0
3 11 -19 -23 -24 0
3 -11 19 23 24 0
3 -11 19 -23 -24 0
3 -11 -19 23 -24 0
3 -11 -19 -23 24 0
-3 11 19 23 24 0
-3 11 19 -23 -24 0
-3 11 -19 23 -24 0
-3 11 -19 -23 24 0
-3 -11 19 23 -24 0
-3 -11 19 -23 24 0
-3 -11 -19 23 24 0
-3 -11 -19 -23 -24 0
4 12 15 20 21 0
4 12 15 -20 -21 0
4 12 -15 20 -21 0
4 12 -15 -20 21 0
4 -12 15 20 -21 0
4 -12 15 -20 21 0
4 -12 -15 20 21 0
4 -12 -15 -20 -21 0
-4 12 15 20 -21 0
-4 12 15 -20 21 0
-4 12 -15 20 21 0
-4 12 -15 -20 -21 0
-4 -12 15 20 21 0
-4 -12 15 -20 -21 0
-4 -12 -15 20 -21 0
-4 -12 -15 -20 21 0
5 16 22 23 25 0
5 16 22 -23 -25 0
5 16 -22 23 -25 0
5 16 -22 -23 25 0
5 -16 22 23 -25 0
5 -16 22 -23 25 0
5 -16 -22 23 25 0
5 -16 -22 -23 -25 0
-5 16 22 23 -25 0
-5 16 22 -23 25 0
-5 16 -22 23 25 0
-5 16 -22 -23 -25 0
-5 -16 22 23 25 0
-5 -16 22 -23 -25 0
-5 -16 -22 23 -25 0
-5 -16 -22 -23 25 0
9 13 17 24 -25 0
9 13 17 -24 25 0
9 13 -17 24 25 0
9 13 -17 -24 -25 0
9 -13 17 24 25 0
9 -13 17 -24 -25 0
9 -13 -17 24 -25 0
9 -13 -17 -24 25 0
-9 13 17 24 25 0
-9 13 17 -24 -25 0
-9 13 -17 24 -25 0
-9 13 -17 -24 25 0
-9 -13 17 24 -25 0
-9 -13 17 -24 25 0
-9 -13 -17 24 25 0
-9 -13 -17 -24 -25 0
